(set-logic QF_SLIA)
(set-option :produce-models true)
(declare-const X String)
; ^(((0[1-9]|[12]\d|3[01])[\s\.\-\/](0[13578]|1[02])[\s\.\-\/]((19|[2-9]\d)\d{2}))|((0[1-9]|[12]\d|30)[\s\.\-\/](0[13456789]|1[012])[\s\.\-\/]((19|[2-9]\d)\d{2}))|((0[1-9]|1\d|2[0-8])[\s\.\-\/]02[\s\.\-\/]((19|[2-9]\d)\d{2}))|(29[\s\.\-\/]02[\s\.\-\/]((1[6-9]|[2-9]\d)(0[48]|[2468][048]|[13579][26])|((16|[2468][048]|[3579][26])00))))$
(assert (not (str.in_re X (re.++ (re.union (re.++ (re.union (re.++ (str.to_re "0") (re.range "1" "9")) (re.++ (re.union (str.to_re "1") (str.to_re "2")) (re.range "0" "9")) (re.++ (str.to_re "3") (re.union (str.to_re "0") (str.to_re "1")))) (re.union (str.to_re ".") (str.to_re "-") (str.to_re "/") (str.to_re " ") (str.to_re "\u{09}") (str.to_re "\u{0a}") (str.to_re "\u{0c}") (str.to_re "\u{0d}")) (re.union (re.++ (str.to_re "0") (re.union (str.to_re "1") (str.to_re "3") (str.to_re "5") (str.to_re "7") (str.to_re "8"))) (re.++ (str.to_re "1") (re.union (str.to_re "0") (str.to_re "2")))) (re.union (str.to_re ".") (str.to_re "-") (str.to_re "/") (str.to_re " ") (str.to_re "\u{09}") (str.to_re "\u{0a}") (str.to_re "\u{0c}") (str.to_re "\u{0d}")) (re.union (str.to_re "19") (re.++ (re.range "2" "9") (re.range "0" "9"))) ((_ re.loop 2 2) (re.range "0" "9"))) (re.++ (re.union (re.++ (str.to_re "0") (re.range "1" "9")) (re.++ (re.union (str.to_re "1") (str.to_re "2")) (re.range "0" "9")) (str.to_re "30")) (re.union (str.to_re ".") (str.to_re "-") (str.to_re "/") (str.to_re " ") (str.to_re "\u{09}") (str.to_re "\u{0a}") (str.to_re "\u{0c}") (str.to_re "\u{0d}")) (re.union (re.++ (str.to_re "0") (re.union (str.to_re "1") (str.to_re "3") (str.to_re "4") (str.to_re "5") (str.to_re "6") (str.to_re "7") (str.to_re "8") (str.to_re "9"))) (re.++ (str.to_re "1") (re.union (str.to_re "0") (str.to_re "1") (str.to_re "2")))) (re.union (str.to_re ".") (str.to_re "-") (str.to_re "/") (str.to_re " ") (str.to_re "\u{09}") (str.to_re "\u{0a}") (str.to_re "\u{0c}") (str.to_re "\u{0d}")) (re.union (str.to_re "19") (re.++ (re.range "2" "9") (re.range "0" "9"))) ((_ re.loop 2 2) (re.range "0" "9"))) (re.++ (re.union (re.++ (str.to_re "0") (re.range "1" "9")) (re.++ (str.to_re "1") (re.range "0" "9")) (re.++ (str.to_re "2") (re.range "0" "8"))) (re.union (str.to_re ".") (str.to_re "-") (str.to_re "/") (str.to_re " ") (str.to_re "\u{09}") (str.to_re "\u{0a}") (str.to_re "\u{0c}") (str.to_re "\u{0d}")) (str.to_re "02") (re.union (str.to_re ".") (str.to_re "-") (str.to_re "/") (str.to_re " ") (str.to_re "\u{09}") (str.to_re "\u{0a}") (str.to_re "\u{0c}") (str.to_re "\u{0d}")) (re.union (str.to_re "19") (re.++ (re.range "2" "9") (re.range "0" "9"))) ((_ re.loop 2 2) (re.range "0" "9"))) (re.++ (str.to_re "29") (re.union (str.to_re ".") (str.to_re "-") (str.to_re "/") (str.to_re " ") (str.to_re "\u{09}") (str.to_re "\u{0a}") (str.to_re "\u{0c}") (str.to_re "\u{0d}")) (str.to_re "02") (re.union (str.to_re ".") (str.to_re "-") (str.to_re "/") (str.to_re " ") (str.to_re "\u{09}") (str.to_re "\u{0a}") (str.to_re "\u{0c}") (str.to_re "\u{0d}")) (re.union (re.++ (re.union (re.++ (str.to_re "1") (re.range "6" "9")) (re.++ (re.range "2" "9") (re.range "0" "9"))) (re.union (re.++ (str.to_re "0") (re.union (str.to_re "4") (str.to_re "8"))) (re.++ (re.union (str.to_re "2") (str.to_re "4") (str.to_re "6") (str.to_re "8")) (re.union (str.to_re "0") (str.to_re "4") (str.to_re "8"))) (re.++ (re.union (str.to_re "1") (str.to_re "3") (str.to_re "5") (str.to_re "7") (str.to_re "9")) (re.union (str.to_re "2") (str.to_re "6"))))) (re.++ (re.union (str.to_re "16") (re.++ (re.union (str.to_re "2") (str.to_re "4") (str.to_re "6") (str.to_re "8")) (re.union (str.to_re "0") (str.to_re "4") (str.to_re "8"))) (re.++ (re.union (str.to_re "3") (str.to_re "5") (str.to_re "7") (str.to_re "9")) (re.union (str.to_re "2") (str.to_re "6")))) (str.to_re "00"))))) (str.to_re "\u{0a}")))))
; Host\x3A\s+Host\s+Host\u{3a}InformationX-OSSproxy\u{3a}as\x2Estarware\x2Ecom
(assert (not (str.in_re X (re.++ (str.to_re "Host:") (re.+ (re.union (str.to_re " ") (str.to_re "\u{09}") (str.to_re "\u{0a}") (str.to_re "\u{0c}") (str.to_re "\u{0d}"))) (str.to_re "Host") (re.+ (re.union (str.to_re " ") (str.to_re "\u{09}") (str.to_re "\u{0a}") (str.to_re "\u{0c}") (str.to_re "\u{0d}"))) (str.to_re "Host:InformationX-OSSproxy:as.starware.com\u{0a}")))))
(check-sat)
